(set-option :produce-models true)
(set-logic QF_UF)
(declare-fun p15() Bool)
(declare-fun p8() Bool)
(declare-fun p28() Bool)
(declare-fun p25() Bool)
(declare-fun p4() Bool)
(declare-fun p24() Bool)
(declare-fun p12() Bool)
(declare-fun p14() Bool)
(declare-fun p3() Bool)
(declare-fun p23() Bool)
(declare-fun p10() Bool)
(declare-fun p2() Bool)
(declare-fun p9() Bool)
(declare-fun p6() Bool)
(declare-fun p21() Bool)
(declare-fun p11() Bool)
(declare-fun p22() Bool)
(declare-fun p5() Bool)
(declare-fun p19() Bool)
(declare-fun p27() Bool)
(declare-fun p29() Bool)
(declare-fun p20() Bool)
(declare-fun p7() Bool)
(declare-fun p1() Bool)
(declare-fun p18() Bool)
(declare-fun p26() Bool)
(declare-fun p0() Bool)
(declare-fun p16() Bool)
(declare-fun p17() Bool)
(declare-fun p13() Bool)
(assert
(and (or p15 p15 (not p8)) (or p28 (not p25) p4) (or (not p24) (not p12) (not p24)) (or (not p14) (not p3) (not p14)) (or (not p23) p10 (not p2)) (or p8 (not p14) p9) (or p6 (not p4) p28) (or (not p21) p11 (not p22)) (or p5 p3 (not p23)) (or p3 p3 p2) (or p19 p14 (not p2)) (or (not p15) p2 p27) (or p29 p12 p11) (or (not p6) p5 p9) (or (not p25) p19 (not p20)) (or (not p14) p15 (not p7)) (or (not p8) (not p11) (not p1)) (or p21 p18 p28) (or (not p27) p3 p19) (or p21 (not p23) (not p1)) (or p29 (not p4) p26) (or (not p27) (not p6) p22) (or p8 p7 (not p12)) (or (not p9) p5 (not p11)) (or (not p14) p4 p11) (or p12 (not p0) (not p24)) (or (not p16) p21 p10) (or p3 p26 p11) (or p29 (not p16) (not p11)) (or p14 (not p29) p19) (or (not p9) (not p23) (not p7)) (or (not p12) (not p17) (not p15)) (or (not p10) p12 (not p14)) (or (not p1) (not p21) (not p23)) (or p29 p19 (not p13)) (or p17 p29 (not p23)) (or (not p14) (not p25) p24) (or (not p26) (not p2) (not p5)) (or (not p16) (not p19) (not p5)) (or (not p11) (not p9) (not p27)) (or p15 (not p23) p10) (or p11 p3 p2) (or p7 (not p5) (not p4)) (or (not p6) (not p0) p3) (or p8 (not p11) (not p18)) (or p9 (not p19) p21) (or (not p15) p26 (not p22)) (or (not p1) p27 p25) (or p20 p24 p26) (or (not p6) (not p18) p13) (or (not p20) p24 (not p17)) (or p22 p28 p11) (or (not p6) p12 p7) (or p9 p19 p20) (or p6 (not p10) p5) (or (not p11) p14 (not p6)) (or p8 p13 p22) (or (not p15) (not p22) (not p18)) (or p18 (not p27) (not p3)) (or p29 p8 p10) (or (not p27) p16 p16) (or p10 p25 (not p18)) (or (not p0) (not p13) p6) (or p6 (not p15) (not p1)) (or p19 p22 p3) (or p12 (not p7) (not p0)) (or (not p14) (not p15) (not p22)) (or (not p5) (not p1) p1) (or (not p28) p28 (not p7)) (or p29 p8 p7) (or (not p24) (not p0) (not p7)) (or p0 p24 p28) (or p29 (not p20) (not p0)) (or (not p14) p24 p26) (or (not p8) p25 p1) (or p12 (not p27) (not p0)) (or p11 p28 p4) (or (not p1) (not p4) (not p11)) (or p17 (not p25) (not p5)) (or (not p0) (not p14) p20) (or p16 p6 p3) (or p28 p29 (not p24)) (or p27 p19 p6) (or p0 p8 p14) (or p27 p14 (not p6)) (or (not p19) p4 p29) (or p20 p28 p29) (or (not p3) (not p0) p16) (or p24 p29 p10) (or (not p25) (not p17) p18) (or p18 p25 p27) (or p22 p0 (not p26)) (or p21 p3 (not p25)) (or p12 p7 p16) (or (not p28) (not p1) (not p16)) (or (not p11) (not p1) p13) (or p15 p27 p24) (or (not p6) (not p26) (not p23)) (or p23 p4 p6) (or p22 (not p10) (not p29)) (or (not p10) (not p19) (not p29)) (or p6 (not p20) (not p17)) (or p0 p0 p9) (or p21 p6 p21) (or p0 p19 (not p24)) (or p7 p24 p14) (or (not p11) p7 (not p6)) (or p28 p22 p29) (or (not p10) p19 p25) (or (not p27) (not p18) p22) (or (not p13) (not p3) p3) (or (not p12) (not p15) (not p24)) (or p6 (not p12) p24) (or p29 (not p27) p23) (or (not p22) (not p26) p28) (or p13 (not p2) p4) (or p23 (not p18) (not p26)) (or (not p13) (not p4) (not p0)) (or p7 (not p14) p15) (or (not p5) (not p13) (not p11)) (or (not p21) (not p25) p9) (or p25 (not p3) p24) (or p15 p3 p11) (or (not p16) (not p29) p16) (or (not p16) (not p25) (not p20)) (or (not p25) p27 p13) (or (not p21) p6 p4) (or p5 p2 p17))
)
(check-sat)
(get-model)
